NAME: line_9_35
TYPE: TSP
COMMENT: srandom_9_35
DIMENSION: 9
EDGE_WEIGHT_TYPE: EUC_2D
NODE_COORD_SECTION
1 1983 1642
2 433 3187
3 2248 2372
4 4899 65
5 1753 1497
6 658 242
7 134 908
8 3465 4619
9 4666 4699
